c cksystemsgroup.github.io/unicorn
c CNF contains a total of 522 clauses.
c CNF contains a total of 210 variables.
c CNF clauses cover 1 bad states.
c Variable name mapping (9 names):
c   1: 1-byte-input[n=70][bit=0]
c   3: 1-byte-input[n=70][bit=1]
c   7: 1-byte-input[n=70][bit=2]
c   12: 1-byte-input[n=70][bit=3]
c   18: 1-byte-input[n=70][bit=4]
c   24: 1-byte-input[n=70][bit=5]
c   30: 1-byte-input[n=70][bit=6]
c   36: 1-byte-input[n=70][bit=7]
c   210: division-by-zero[n=82]
p cnf 210 522
-1 -2 0
1 2 0
-3 -4 0
3 4 0
-4 -5 0
4 5 0
-2 -5 6 0
2 -6 0
5 -6 0
8 0
7 8 3 -9 0
7 8 -3 9 0
7 -8 3 9 0
7 -8 -3 -9 0
-7 8 3 9 0
-7 8 -3 -9 0
-7 -8 3 -9 0
-7 -8 -3 9 0
-9 -10 0
9 10 0
-6 -10 11 0
6 -11 0
10 -11 0
-13 0
7 8 -14 0
7 3 -14 0
-8 -3 14 0
8 3 -14 0
-7 -3 14 0
-7 -8 14 0
12 13 14 -15 0
12 13 -14 15 0
12 -13 14 15 0
12 -13 -14 -15 0
-12 13 14 15 0
-12 13 -14 -15 0
-12 -13 14 -15 0
-12 -13 -14 15 0
-15 -16 0
15 16 0
-11 -16 17 0
11 -17 0
16 -17 0
19 0
12 13 -20 0
12 14 -20 0
-13 -14 20 0
13 14 -20 0
-12 -14 20 0
-12 -13 20 0
18 19 20 -21 0
18 19 -20 21 0
18 -19 20 21 0
18 -19 -20 -21 0
-18 19 20 21 0
-18 19 -20 -21 0
-18 -19 20 -21 0
-18 -19 -20 21 0
-21 -22 0
21 22 0
-17 -22 23 0
17 -23 0
22 -23 0
-25 0
18 19 -26 0
18 20 -26 0
-19 -20 26 0
19 20 -26 0
-18 -20 26 0
-18 -19 26 0
24 25 26 -27 0
24 25 -26 27 0
24 -25 26 27 0
24 -25 -26 -27 0
-24 25 26 27 0
-24 25 -26 -27 0
-24 -25 26 -27 0
-24 -25 -26 27 0
-27 -28 0
27 28 0
-23 -28 29 0
23 -29 0
28 -29 0
31 0
24 25 -32 0
24 26 -32 0
-25 -26 32 0
25 26 -32 0
-24 -26 32 0
-24 -25 32 0
30 31 32 -33 0
30 31 -32 33 0
30 -31 32 33 0
30 -31 -32 -33 0
-30 31 32 33 0
-30 31 -32 -33 0
-30 -31 32 -33 0
-30 -31 -32 33 0
-33 -34 0
33 34 0
-29 -34 35 0
29 -35 0
34 -35 0
37 0
30 31 -38 0
30 32 -38 0
-31 -32 38 0
31 32 -38 0
-30 -32 38 0
-30 -31 38 0
36 37 38 -39 0
36 37 -38 39 0
36 -37 38 39 0
36 -37 -38 -39 0
-36 37 38 39 0
-36 37 -38 -39 0
-36 -37 38 -39 0
-36 -37 -38 39 0
-39 -40 0
39 40 0
-35 -40 41 0
35 -41 0
40 -41 0
36 37 -42 0
36 38 -42 0
-37 -38 42 0
37 38 -42 0
-36 -38 42 0
-36 -37 42 0
-42 -43 0
42 43 0
-43 -44 0
43 44 0
-41 -44 45 0
41 -45 0
44 -45 0
-42 -46 0
42 46 0
-46 -47 0
46 47 0
-45 -47 48 0
45 -48 0
47 -48 0
-42 -49 0
42 49 0
-49 -50 0
49 50 0
-48 -50 51 0
48 -51 0
50 -51 0
-42 -52 0
42 52 0
-52 -53 0
52 53 0
-51 -53 54 0
51 -54 0
53 -54 0
-42 -55 0
42 55 0
-55 -56 0
55 56 0
-54 -56 57 0
54 -57 0
56 -57 0
-42 -58 0
42 58 0
-58 -59 0
58 59 0
-57 -59 60 0
57 -60 0
59 -60 0
-42 -61 0
42 61 0
-61 -62 0
61 62 0
-60 -62 63 0
60 -63 0
62 -63 0
-42 -64 0
42 64 0
-64 -65 0
64 65 0
-63 -65 66 0
63 -66 0
65 -66 0
-42 -67 0
42 67 0
-67 -68 0
67 68 0
-66 -68 69 0
66 -69 0
68 -69 0
-42 -70 0
42 70 0
-70 -71 0
70 71 0
-69 -71 72 0
69 -72 0
71 -72 0
-42 -73 0
42 73 0
-73 -74 0
73 74 0
-72 -74 75 0
72 -75 0
74 -75 0
-42 -76 0
42 76 0
-76 -77 0
76 77 0
-75 -77 78 0
75 -78 0
77 -78 0
-42 -79 0
42 79 0
-79 -80 0
79 80 0
-78 -80 81 0
78 -81 0
80 -81 0
-42 -82 0
42 82 0
-82 -83 0
82 83 0
-81 -83 84 0
81 -84 0
83 -84 0
-42 -85 0
42 85 0
-85 -86 0
85 86 0
-84 -86 87 0
84 -87 0
86 -87 0
-42 -88 0
42 88 0
-88 -89 0
88 89 0
-87 -89 90 0
87 -90 0
89 -90 0
-42 -91 0
42 91 0
-91 -92 0
91 92 0
-90 -92 93 0
90 -93 0
92 -93 0
-42 -94 0
42 94 0
-94 -95 0
94 95 0
-93 -95 96 0
93 -96 0
95 -96 0
-42 -97 0
42 97 0
-97 -98 0
97 98 0
-96 -98 99 0
96 -99 0
98 -99 0
-42 -100 0
42 100 0
-100 -101 0
100 101 0
-99 -101 102 0
99 -102 0
101 -102 0
-42 -103 0
42 103 0
-103 -104 0
103 104 0
-102 -104 105 0
102 -105 0
104 -105 0
-42 -106 0
42 106 0
-106 -107 0
106 107 0
-105 -107 108 0
105 -108 0
107 -108 0
-42 -109 0
42 109 0
-109 -110 0
109 110 0
-108 -110 111 0
108 -111 0
110 -111 0
-42 -112 0
42 112 0
-112 -113 0
112 113 0
-111 -113 114 0
111 -114 0
113 -114 0
-42 -115 0
42 115 0
-115 -116 0
115 116 0
-114 -116 117 0
114 -117 0
116 -117 0
-42 -118 0
42 118 0
-118 -119 0
118 119 0
-117 -119 120 0
117 -120 0
119 -120 0
-42 -121 0
42 121 0
-121 -122 0
121 122 0
-120 -122 123 0
120 -123 0
122 -123 0
-42 -124 0
42 124 0
-124 -125 0
124 125 0
-123 -125 126 0
123 -126 0
125 -126 0
-42 -127 0
42 127 0
-127 -128 0
127 128 0
-126 -128 129 0
126 -129 0
128 -129 0
-42 -130 0
42 130 0
-130 -131 0
130 131 0
-129 -131 132 0
129 -132 0
131 -132 0
-42 -133 0
42 133 0
-133 -134 0
133 134 0
-132 -134 135 0
132 -135 0
134 -135 0
-42 -136 0
42 136 0
-136 -137 0
136 137 0
-135 -137 138 0
135 -138 0
137 -138 0
-42 -139 0
42 139 0
-139 -140 0
139 140 0
-138 -140 141 0
138 -141 0
140 -141 0
-42 -142 0
42 142 0
-142 -143 0
142 143 0
-141 -143 144 0
141 -144 0
143 -144 0
-42 -145 0
42 145 0
-145 -146 0
145 146 0
-144 -146 147 0
144 -147 0
146 -147 0
-42 -148 0
42 148 0
-148 -149 0
148 149 0
-147 -149 150 0
147 -150 0
149 -150 0
-42 -151 0
42 151 0
-151 -152 0
151 152 0
-150 -152 153 0
150 -153 0
152 -153 0
-42 -154 0
42 154 0
-154 -155 0
154 155 0
-153 -155 156 0
153 -156 0
155 -156 0
-42 -157 0
42 157 0
-157 -158 0
157 158 0
-156 -158 159 0
156 -159 0
158 -159 0
-42 -160 0
42 160 0
-160 -161 0
160 161 0
-159 -161 162 0
159 -162 0
161 -162 0
-42 -163 0
42 163 0
-163 -164 0
163 164 0
-162 -164 165 0
162 -165 0
164 -165 0
-42 -166 0
42 166 0
-166 -167 0
166 167 0
-165 -167 168 0
165 -168 0
167 -168 0
-42 -169 0
42 169 0
-169 -170 0
169 170 0
-168 -170 171 0
168 -171 0
170 -171 0
-42 -172 0
42 172 0
-172 -173 0
172 173 0
-171 -173 174 0
171 -174 0
173 -174 0
-42 -175 0
42 175 0
-175 -176 0
175 176 0
-174 -176 177 0
174 -177 0
176 -177 0
-42 -178 0
42 178 0
-178 -179 0
178 179 0
-177 -179 180 0
177 -180 0
179 -180 0
-42 -181 0
42 181 0
-181 -182 0
181 182 0
-180 -182 183 0
180 -183 0
182 -183 0
-42 -184 0
42 184 0
-184 -185 0
184 185 0
-183 -185 186 0
183 -186 0
185 -186 0
-42 -187 0
42 187 0
-187 -188 0
187 188 0
-186 -188 189 0
186 -189 0
188 -189 0
-42 -190 0
42 190 0
-190 -191 0
190 191 0
-189 -191 192 0
189 -192 0
191 -192 0
-42 -193 0
42 193 0
-193 -194 0
193 194 0
-192 -194 195 0
192 -195 0
194 -195 0
-42 -196 0
42 196 0
-196 -197 0
196 197 0
-195 -197 198 0
195 -198 0
197 -198 0
-42 -199 0
42 199 0
-199 -200 0
199 200 0
-198 -200 201 0
198 -201 0
200 -201 0
-42 -202 0
42 202 0
-202 -203 0
202 203 0
-201 -203 204 0
201 -204 0
203 -204 0
-42 -205 0
42 205 0
-205 -206 0
205 206 0
-204 -206 207 0
204 -207 0
206 -207 0
-42 -208 0
42 208 0
-208 -209 0
208 209 0
-207 -209 210 0
207 -210 0
209 -210 0
210 0
